input/length_14_1.lp
Maximize
+  C1,2 + C1,5 +  C2,3 + C2,6 +  C3,4 + C3,7 + C4,8 +  C5,6 + C5,9 +  C6,7 + C6,10 +  C7,8 + C7,11 + C8,12 +  C9,10 + C9,13 +  C10,11 + C10,14 +  C11,12 + C11,15 + C12,16 +  C13,14 +  C14,15 +  C15,16  - Offset 
subject to 
Offset = 0 
+ X1,1 + X1,2 + X1,3 + X1,4 + X1,5 + X1,6 + X1,7 + X1,8 + X1,9 + X1,10 + X1,11 + X1,12 + X1,13 + X1,14 + X1,15 + X1,16 =  1 
+ X2,1 + X2,2 + X2,3 + X2,4 + X2,5 + X2,6 + X2,7 + X2,8 + X2,9 + X2,10 + X2,11 + X2,12 + X2,13 + X2,14 + X2,15 + X2,16 =  1 
+ X3,1 + X3,2 + X3,3 + X3,4 + X3,5 + X3,6 + X3,7 + X3,8 + X3,9 + X3,10 + X3,11 + X3,12 + X3,13 + X3,14 + X3,15 + X3,16 =  1 
+ X4,1 + X4,2 + X4,3 + X4,4 + X4,5 + X4,6 + X4,7 + X4,8 + X4,9 + X4,10 + X4,11 + X4,12 + X4,13 + X4,14 + X4,15 + X4,16 =  1 
+ X5,1 + X5,2 + X5,3 + X5,4 + X5,5 + X5,6 + X5,7 + X5,8 + X5,9 + X5,10 + X5,11 + X5,12 + X5,13 + X5,14 + X5,15 + X5,16 =  1 
+ X6,1 + X6,2 + X6,3 + X6,4 + X6,5 + X6,6 + X6,7 + X6,8 + X6,9 + X6,10 + X6,11 + X6,12 + X6,13 + X6,14 + X6,15 + X6,16 =  1 
+ X7,1 + X7,2 + X7,3 + X7,4 + X7,5 + X7,6 + X7,7 + X7,8 + X7,9 + X7,10 + X7,11 + X7,12 + X7,13 + X7,14 + X7,15 + X7,16 =  1 
+ X8,1 + X8,2 + X8,3 + X8,4 + X8,5 + X8,6 + X8,7 + X8,8 + X8,9 + X8,10 + X8,11 + X8,12 + X8,13 + X8,14 + X8,15 + X8,16 =  1 
+ X9,1 + X9,2 + X9,3 + X9,4 + X9,5 + X9,6 + X9,7 + X9,8 + X9,9 + X9,10 + X9,11 + X9,12 + X9,13 + X9,14 + X9,15 + X9,16 =  1 
+ X10,1 + X10,2 + X10,3 + X10,4 + X10,5 + X10,6 + X10,7 + X10,8 + X10,9 + X10,10 + X10,11 + X10,12 + X10,13 + X10,14 + X10,15 + X10,16 =  1 
+ X11,1 + X11,2 + X11,3 + X11,4 + X11,5 + X11,6 + X11,7 + X11,8 + X11,9 + X11,10 + X11,11 + X11,12 + X11,13 + X11,14 + X11,15 + X11,16 =  1 
+ X12,1 + X12,2 + X12,3 + X12,4 + X12,5 + X12,6 + X12,7 + X12,8 + X12,9 + X12,10 + X12,11 + X12,12 + X12,13 + X12,14 + X12,15 + X12,16 =  1 
+ X13,1 + X13,2 + X13,3 + X13,4 + X13,5 + X13,6 + X13,7 + X13,8 + X13,9 + X13,10 + X13,11 + X13,12 + X13,13 + X13,14 + X13,15 + X13,16 =  1 
+ X14,1 + X14,2 + X14,3 + X14,4 + X14,5 + X14,6 + X14,7 + X14,8 + X14,9 + X14,10 + X14,11 + X14,12 + X14,13 + X14,14 + X14,15 + X14,16 =  1 
+ X1,1 + X2,1 + X3,1 + X4,1 + X5,1 + X6,1 + X7,1 + X8,1 + X9,1 + X10,1 + X11,1 + X12,1 + X13,1 + X14,1 <=  1 
+ X1,2 + X2,2 + X3,2 + X4,2 + X5,2 + X6,2 + X7,2 + X8,2 + X9,2 + X10,2 + X11,2 + X12,2 + X13,2 + X14,2 <=  1 
+ X1,3 + X2,3 + X3,3 + X4,3 + X5,3 + X6,3 + X7,3 + X8,3 + X9,3 + X10,3 + X11,3 + X12,3 + X13,3 + X14,3 <=  1 
+ X1,4 + X2,4 + X3,4 + X4,4 + X5,4 + X6,4 + X7,4 + X8,4 + X9,4 + X10,4 + X11,4 + X12,4 + X13,4 + X14,4 <=  1 
+ X1,5 + X2,5 + X3,5 + X4,5 + X5,5 + X6,5 + X7,5 + X8,5 + X9,5 + X10,5 + X11,5 + X12,5 + X13,5 + X14,5 <=  1 
+ X1,6 + X2,6 + X3,6 + X4,6 + X5,6 + X6,6 + X7,6 + X8,6 + X9,6 + X10,6 + X11,6 + X12,6 + X13,6 + X14,6 <=  1 
+ X1,7 + X2,7 + X3,7 + X4,7 + X5,7 + X6,7 + X7,7 + X8,7 + X9,7 + X10,7 + X11,7 + X12,7 + X13,7 + X14,7 <=  1 
+ X1,8 + X2,8 + X3,8 + X4,8 + X5,8 + X6,8 + X7,8 + X8,8 + X9,8 + X10,8 + X11,8 + X12,8 + X13,8 + X14,8 <=  1 
+ X1,9 + X2,9 + X3,9 + X4,9 + X5,9 + X6,9 + X7,9 + X8,9 + X9,9 + X10,9 + X11,9 + X12,9 + X13,9 + X14,9 <=  1 
+ X1,10 + X2,10 + X3,10 + X4,10 + X5,10 + X6,10 + X7,10 + X8,10 + X9,10 + X10,10 + X11,10 + X12,10 + X13,10 + X14,10 <=  1 
+ X1,11 + X2,11 + X3,11 + X4,11 + X5,11 + X6,11 + X7,11 + X8,11 + X9,11 + X10,11 + X11,11 + X12,11 + X13,11 + X14,11 <=  1 
+ X1,12 + X2,12 + X3,12 + X4,12 + X5,12 + X6,12 + X7,12 + X8,12 + X9,12 + X10,12 + X11,12 + X12,12 + X13,12 + X14,12 <=  1 
+ X1,13 + X2,13 + X3,13 + X4,13 + X5,13 + X6,13 + X7,13 + X8,13 + X9,13 + X10,13 + X11,13 + X12,13 + X13,13 + X14,13 <=  1 
+ X1,14 + X2,14 + X3,14 + X4,14 + X5,14 + X6,14 + X7,14 + X8,14 + X9,14 + X10,14 + X11,14 + X12,14 + X13,14 + X14,14 <=  1 
+ X1,15 + X2,15 + X3,15 + X4,15 + X5,15 + X6,15 + X7,15 + X8,15 + X9,15 + X10,15 + X11,15 + X12,15 + X13,15 + X14,15 <=  1 
+ X1,16 + X2,16 + X3,16 + X4,16 + X5,16 + X6,16 + X7,16 + X8,16 + X9,16 + X10,16 + X11,16 + X12,16 + X13,16 + X14,16 <=  1 
X1,6 - X2,7 - X2,5 - X2,10 - X2,2 <= 0
X2,6 - X3,7 - X3,5 - X3,10 - X3,2 <= 0
X3,6 - X4,7 - X4,5 - X4,10 - X4,2 <= 0
X4,6 - X5,7 - X5,5 - X5,10 - X5,2 <= 0
X5,6 - X6,7 - X6,5 - X6,10 - X6,2 <= 0
X6,6 - X7,7 - X7,5 - X7,10 - X7,2 <= 0
X7,6 - X8,7 - X8,5 - X8,10 - X8,2 <= 0
X8,6 - X9,7 - X9,5 - X9,10 - X9,2 <= 0
X9,6 - X10,7 - X10,5 - X10,10 - X10,2 <= 0
X10,6 - X11,7 - X11,5 - X11,10 - X11,2 <= 0
X11,6 - X12,7 - X12,5 - X12,10 - X12,2 <= 0
X12,6 - X13,7 - X13,5 - X13,10 - X13,2 <= 0
X13,6 - X14,7 - X14,5 - X14,10 - X14,2 <= 0
X1,7 - X2,8 - X2,6 - X2,11 - X2,3 <= 0
X2,7 - X3,8 - X3,6 - X3,11 - X3,3 <= 0
X3,7 - X4,8 - X4,6 - X4,11 - X4,3 <= 0
X4,7 - X5,8 - X5,6 - X5,11 - X5,3 <= 0
X5,7 - X6,8 - X6,6 - X6,11 - X6,3 <= 0
X6,7 - X7,8 - X7,6 - X7,11 - X7,3 <= 0
X7,7 - X8,8 - X8,6 - X8,11 - X8,3 <= 0
X8,7 - X9,8 - X9,6 - X9,11 - X9,3 <= 0
X9,7 - X10,8 - X10,6 - X10,11 - X10,3 <= 0
X10,7 - X11,8 - X11,6 - X11,11 - X11,3 <= 0
X11,7 - X12,8 - X12,6 - X12,11 - X12,3 <= 0
X12,7 - X13,8 - X13,6 - X13,11 - X13,3 <= 0
X13,7 - X14,8 - X14,6 - X14,11 - X14,3 <= 0
X1,10 - X2,11 - X2,9 - X2,14 - X2,6 <= 0
X2,10 - X3,11 - X3,9 - X3,14 - X3,6 <= 0
X3,10 - X4,11 - X4,9 - X4,14 - X4,6 <= 0
X4,10 - X5,11 - X5,9 - X5,14 - X5,6 <= 0
X5,10 - X6,11 - X6,9 - X6,14 - X6,6 <= 0
X6,10 - X7,11 - X7,9 - X7,14 - X7,6 <= 0
X7,10 - X8,11 - X8,9 - X8,14 - X8,6 <= 0
X8,10 - X9,11 - X9,9 - X9,14 - X9,6 <= 0
X9,10 - X10,11 - X10,9 - X10,14 - X10,6 <= 0
X10,10 - X11,11 - X11,9 - X11,14 - X11,6 <= 0
X11,10 - X12,11 - X12,9 - X12,14 - X12,6 <= 0
X12,10 - X13,11 - X13,9 - X13,14 - X13,6 <= 0
X13,10 - X14,11 - X14,9 - X14,14 - X14,6 <= 0
X1,11 - X2,12 - X2,10 - X2,15 - X2,7 <= 0
X2,11 - X3,12 - X3,10 - X3,15 - X3,7 <= 0
X3,11 - X4,12 - X4,10 - X4,15 - X4,7 <= 0
X4,11 - X5,12 - X5,10 - X5,15 - X5,7 <= 0
X5,11 - X6,12 - X6,10 - X6,15 - X6,7 <= 0
X6,11 - X7,12 - X7,10 - X7,15 - X7,7 <= 0
X7,11 - X8,12 - X8,10 - X8,15 - X8,7 <= 0
X8,11 - X9,12 - X9,10 - X9,15 - X9,7 <= 0
X9,11 - X10,12 - X10,10 - X10,15 - X10,7 <= 0
X10,11 - X11,12 - X11,10 - X11,15 - X11,7 <= 0
X11,11 - X12,12 - X12,10 - X12,15 - X12,7 <= 0
X12,11 - X13,12 - X13,10 - X13,15 - X13,7 <= 0
X13,11 - X14,12 - X14,10 - X14,15 - X14,7 <= 0
X1,2 - X2,3 - X2,1 - X2,6  <= 0
X2,2 - X3,3 - X3,1 - X3,6  <= 0
X3,2 - X4,3 - X4,1 - X4,6  <= 0
X4,2 - X5,3 - X5,1 - X5,6  <= 0
X5,2 - X6,3 - X6,1 - X6,6  <= 0
X6,2 - X7,3 - X7,1 - X7,6  <= 0
X7,2 - X8,3 - X8,1 - X8,6  <= 0
X8,2 - X9,3 - X9,1 - X9,6  <= 0
X9,2 - X10,3 - X10,1 - X10,6  <= 0
X10,2 - X11,3 - X11,1 - X11,6  <= 0
X11,2 - X12,3 - X12,1 - X12,6  <= 0
X12,2 - X13,3 - X13,1 - X13,6  <= 0
X13,2 - X14,3 - X14,1 - X14,6  <= 0
X1,3 - X2,4 - X2,2 - X2,7  <= 0
X2,3 - X3,4 - X3,2 - X3,7  <= 0
X3,3 - X4,4 - X4,2 - X4,7  <= 0
X4,3 - X5,4 - X5,2 - X5,7  <= 0
X5,3 - X6,4 - X6,2 - X6,7  <= 0
X6,3 - X7,4 - X7,2 - X7,7  <= 0
X7,3 - X8,4 - X8,2 - X8,7  <= 0
X8,3 - X9,4 - X9,2 - X9,7  <= 0
X9,3 - X10,4 - X10,2 - X10,7  <= 0
X10,3 - X11,4 - X11,2 - X11,7  <= 0
X11,3 - X12,4 - X12,2 - X12,7  <= 0
X12,3 - X13,4 - X13,2 - X13,7  <= 0
X13,3 - X14,4 - X14,2 - X14,7  <= 0
X1,14 - X2,15 - X2,13 - X2,10  <= 0
X2,14 - X3,15 - X3,13 - X3,10  <= 0
X3,14 - X4,15 - X4,13 - X4,10  <= 0
X4,14 - X5,15 - X5,13 - X5,10  <= 0
X5,14 - X6,15 - X6,13 - X6,10  <= 0
X6,14 - X7,15 - X7,13 - X7,10  <= 0
X7,14 - X8,15 - X8,13 - X8,10  <= 0
X8,14 - X9,15 - X9,13 - X9,10  <= 0
X9,14 - X10,15 - X10,13 - X10,10  <= 0
X10,14 - X11,15 - X11,13 - X11,10  <= 0
X11,14 - X12,15 - X12,13 - X12,10  <= 0
X12,14 - X13,15 - X13,13 - X13,10  <= 0
X13,14 - X14,15 - X14,13 - X14,10  <= 0
X1,15 - X2,16 - X2,14 - X2,11  <= 0
X2,15 - X3,16 - X3,14 - X3,11  <= 0
X3,15 - X4,16 - X4,14 - X4,11  <= 0
X4,15 - X5,16 - X5,14 - X5,11  <= 0
X5,15 - X6,16 - X6,14 - X6,11  <= 0
X6,15 - X7,16 - X7,14 - X7,11  <= 0
X7,15 - X8,16 - X8,14 - X8,11  <= 0
X8,15 - X9,16 - X9,14 - X9,11  <= 0
X9,15 - X10,16 - X10,14 - X10,11  <= 0
X10,15 - X11,16 - X11,14 - X11,11  <= 0
X11,15 - X12,16 - X12,14 - X12,11  <= 0
X12,15 - X13,16 - X13,14 - X13,11  <= 0
X13,15 - X14,16 - X14,14 - X14,11  <= 0
X1,5 - X2,6 - X2,9 - X2,1  <= 0
X2,5 - X3,6 - X3,9 - X3,1  <= 0
X3,5 - X4,6 - X4,9 - X4,1  <= 0
X4,5 - X5,6 - X5,9 - X5,1  <= 0
X5,5 - X6,6 - X6,9 - X6,1  <= 0
X6,5 - X7,6 - X7,9 - X7,1  <= 0
X7,5 - X8,6 - X8,9 - X8,1  <= 0
X8,5 - X9,6 - X9,9 - X9,1  <= 0
X9,5 - X10,6 - X10,9 - X10,1  <= 0
X10,5 - X11,6 - X11,9 - X11,1  <= 0
X11,5 - X12,6 - X12,9 - X12,1  <= 0
X12,5 - X13,6 - X13,9 - X13,1  <= 0
X13,5 - X14,6 - X14,9 - X14,1  <= 0
X1,9 - X2,10 - X2,13 - X2,5  <= 0
X2,9 - X3,10 - X3,13 - X3,5  <= 0
X3,9 - X4,10 - X4,13 - X4,5  <= 0
X4,9 - X5,10 - X5,13 - X5,5  <= 0
X5,9 - X6,10 - X6,13 - X6,5  <= 0
X6,9 - X7,10 - X7,13 - X7,5  <= 0
X7,9 - X8,10 - X8,13 - X8,5  <= 0
X8,9 - X9,10 - X9,13 - X9,5  <= 0
X9,9 - X10,10 - X10,13 - X10,5  <= 0
X10,9 - X11,10 - X11,13 - X11,5  <= 0
X11,9 - X12,10 - X12,13 - X12,5  <= 0
X12,9 - X13,10 - X13,13 - X13,5  <= 0
X13,9 - X14,10 - X14,13 - X14,5  <= 0
X1,8 - X2,7 - X2,12 - X2,4  <= 0
X2,8 - X3,7 - X3,12 - X3,4  <= 0
X3,8 - X4,7 - X4,12 - X4,4  <= 0
X4,8 - X5,7 - X5,12 - X5,4  <= 0
X5,8 - X6,7 - X6,12 - X6,4  <= 0
X6,8 - X7,7 - X7,12 - X7,4  <= 0
X7,8 - X8,7 - X8,12 - X8,4  <= 0
X8,8 - X9,7 - X9,12 - X9,4  <= 0
X9,8 - X10,7 - X10,12 - X10,4  <= 0
X10,8 - X11,7 - X11,12 - X11,4  <= 0
X11,8 - X12,7 - X12,12 - X12,4  <= 0
X12,8 - X13,7 - X13,12 - X13,4  <= 0
X13,8 - X14,7 - X14,12 - X14,4  <= 0
X1,12 - X2,11 - X2,16 - X2,8  <= 0
X2,12 - X3,11 - X3,16 - X3,8  <= 0
X3,12 - X4,11 - X4,16 - X4,8  <= 0
X4,12 - X5,11 - X5,16 - X5,8  <= 0
X5,12 - X6,11 - X6,16 - X6,8  <= 0
X6,12 - X7,11 - X7,16 - X7,8  <= 0
X7,12 - X8,11 - X8,16 - X8,8  <= 0
X8,12 - X9,11 - X9,16 - X9,8  <= 0
X9,12 - X10,11 - X10,16 - X10,8  <= 0
X10,12 - X11,11 - X11,16 - X11,8  <= 0
X11,12 - X12,11 - X12,16 - X12,8  <= 0
X12,12 - X13,11 - X13,16 - X13,8  <= 0
X13,12 - X14,11 - X14,16 - X14,8  <= 0
X1,1 - X2,2 - X2,5  <= 0
X1,4 - X2,3 - X2,8  <= 0
X1,13 - X2,14 - X2,9  <= 0
X1,16 - X2,15 - X2,12  <= 0
X2,1 - X3,2 - X3,5  <= 0
X2,4 - X3,3 - X3,8  <= 0
X2,13 - X3,14 - X3,9  <= 0
X2,16 - X3,15 - X3,12  <= 0
X3,1 - X4,2 - X4,5  <= 0
X3,4 - X4,3 - X4,8  <= 0
X3,13 - X4,14 - X4,9  <= 0
X3,16 - X4,15 - X4,12  <= 0
X4,1 - X5,2 - X5,5  <= 0
X4,4 - X5,3 - X5,8  <= 0
X4,13 - X5,14 - X5,9  <= 0
X4,16 - X5,15 - X5,12  <= 0
X5,1 - X6,2 - X6,5  <= 0
X5,4 - X6,3 - X6,8  <= 0
X5,13 - X6,14 - X6,9  <= 0
X5,16 - X6,15 - X6,12  <= 0
X6,1 - X7,2 - X7,5  <= 0
X6,4 - X7,3 - X7,8  <= 0
X6,13 - X7,14 - X7,9  <= 0
X6,16 - X7,15 - X7,12  <= 0
X7,1 - X8,2 - X8,5  <= 0
X7,4 - X8,3 - X8,8  <= 0
X7,13 - X8,14 - X8,9  <= 0
X7,16 - X8,15 - X8,12  <= 0
X8,1 - X9,2 - X9,5  <= 0
X8,4 - X9,3 - X9,8  <= 0
X8,13 - X9,14 - X9,9  <= 0
X8,16 - X9,15 - X9,12  <= 0
X9,1 - X10,2 - X10,5  <= 0
X9,4 - X10,3 - X10,8  <= 0
X9,13 - X10,14 - X10,9  <= 0
X9,16 - X10,15 - X10,12  <= 0
X10,1 - X11,2 - X11,5  <= 0
X10,4 - X11,3 - X11,8  <= 0
X10,13 - X11,14 - X11,9  <= 0
X10,16 - X11,15 - X11,12  <= 0
X11,1 - X12,2 - X12,5  <= 0
X11,4 - X12,3 - X12,8  <= 0
X11,13 - X12,14 - X12,9  <= 0
X11,16 - X12,15 - X12,12  <= 0
X12,1 - X13,2 - X13,5  <= 0
X12,4 - X13,3 - X13,8  <= 0
X12,13 - X13,14 - X13,9  <= 0
X12,16 - X13,15 - X13,12  <= 0
X13,1 - X14,2 - X14,5  <= 0
X13,4 - X14,3 - X14,8  <= 0
X13,13 - X14,14 - X14,9  <= 0
X13,16 - X14,15 - X14,12  <= 0
+ X6,1 + X10,1 + X13,1  - I1 = 0 
+ X6,2 + X10,2 + X13,2  - I2 = 0 
+ X6,3 + X10,3 + X13,3  - I3 = 0 
+ X6,4 + X10,4 + X13,4  - I4 = 0 
+ X6,5 + X10,5 + X13,5  - I5 = 0 
+ X6,6 + X10,6 + X13,6  - I6 = 0 
+ X6,7 + X10,7 + X13,7  - I7 = 0 
+ X6,8 + X10,8 + X13,8  - I8 = 0 
+ X6,9 + X10,9 + X13,9  - I9 = 0 
+ X6,10 + X10,10 + X13,10  - I10 = 0 
+ X6,11 + X10,11 + X13,11  - I11 = 0 
+ X6,12 + X10,12 + X13,12  - I12 = 0 
+ X6,13 + X10,13 + X13,13  - I13 = 0 
+ X6,14 + X10,14 + X13,14  - I14 = 0 
+ X6,15 + X10,15 + X13,15  - I15 = 0 
+ X6,16 + X10,16 + X13,16  - I16 = 0 
 

I1 + I2 - 2 C1,2 >= 0
I1 + I5 - 2 C1,5 >= 0
I2 + I3 - 2 C2,3 >= 0
I2 + I6 - 2 C2,6 >= 0
I3 + I4 - 2 C3,4 >= 0
I3 + I7 - 2 C3,7 >= 0
I4 + I8 - 2 C4,8 >= 0
I5 + I6 - 2 C5,6 >= 0
I5 + I9 - 2 C5,9 >= 0
I6 + I7 - 2 C6,7 >= 0
I6 + I10 - 2 C6,10 >= 0
I7 + I8 - 2 C7,8 >= 0
I7 + I11 - 2 C7,11 >= 0
I8 + I12 - 2 C8,12 >= 0
I9 + I10 - 2 C9,10 >= 0
I9 + I13 - 2 C9,13 >= 0
I10 + I11 - 2 C10,11 >= 0
I10 + I14 - 2 C10,14 >= 0
I11 + I12 - 2 C11,12 >= 0
I11 + I15 - 2 C11,15 >= 0
I12 + I16 - 2 C12,16 >= 0
I13 + I14 - 2 C13,14 >= 0
I14 + I15 - 2 C14,15 >= 0
I15 + I16 - 2 C15,16 >= 0
 

binary 
C1,2
C1,5
C2,3
C2,6
C3,4
C3,7
C4,8
C5,6
C5,9
C6,7
C6,10
C7,8
C7,11
C8,12
C9,10
C9,13
C10,11
C10,14
C11,12
C11,15
C12,16
C13,14
C14,15
C15,16
X1,1
X1,2
X1,3
X1,4
X1,5
X1,6
X1,7
X1,8
X1,9
X1,10
X1,11
X1,12
X1,13
X1,14
X1,15
X1,16
X2,1
X2,2
X2,3
X2,4
X2,5
X2,6
X2,7
X2,8
X2,9
X2,10
X2,11
X2,12
X2,13
X2,14
X2,15
X2,16
X3,1
X3,2
X3,3
X3,4
X3,5
X3,6
X3,7
X3,8
X3,9
X3,10
X3,11
X3,12
X3,13
X3,14
X3,15
X3,16
X4,1
X4,2
X4,3
X4,4
X4,5
X4,6
X4,7
X4,8
X4,9
X4,10
X4,11
X4,12
X4,13
X4,14
X4,15
X4,16
X5,1
X5,2
X5,3
X5,4
X5,5
X5,6
X5,7
X5,8
X5,9
X5,10
X5,11
X5,12
X5,13
X5,14
X5,15
X5,16
X6,1
X6,2
X6,3
X6,4
X6,5
X6,6
X6,7
X6,8
X6,9
X6,10
X6,11
X6,12
X6,13
X6,14
X6,15
X6,16
X7,1
X7,2
X7,3
X7,4
X7,5
X7,6
X7,7
X7,8
X7,9
X7,10
X7,11
X7,12
X7,13
X7,14
X7,15
X7,16
X8,1
X8,2
X8,3
X8,4
X8,5
X8,6
X8,7
X8,8
X8,9
X8,10
X8,11
X8,12
X8,13
X8,14
X8,15
X8,16
X9,1
X9,2
X9,3
X9,4
X9,5
X9,6
X9,7
X9,8
X9,9
X9,10
X9,11
X9,12
X9,13
X9,14
X9,15
X9,16
X10,1
X10,2
X10,3
X10,4
X10,5
X10,6
X10,7
X10,8
X10,9
X10,10
X10,11
X10,12
X10,13
X10,14
X10,15
X10,16
X11,1
X11,2
X11,3
X11,4
X11,5
X11,6
X11,7
X11,8
X11,9
X11,10
X11,11
X11,12
X11,13
X11,14
X11,15
X11,16
X12,1
X12,2
X12,3
X12,4
X12,5
X12,6
X12,7
X12,8
X12,9
X12,10
X12,11
X12,12
X12,13
X12,14
X12,15
X12,16
X13,1
X13,2
X13,3
X13,4
X13,5
X13,6
X13,7
X13,8
X13,9
X13,10
X13,11
X13,12
X13,13
X13,14
X13,15
X13,16
X14,1
X14,2
X14,3
X14,4
X14,5
X14,6
X14,7
X14,8
X14,9
X14,10
X14,11
X14,12
X14,13
X14,14
X14,15
X14,16
I1 
I2 
I3 
I4 
I5 
I6 
I7 
I8 
I9 
I10 
I11 
I12 
I13 
I14 
I15 
I16 
 
end