input/length_14_1
00000100010010
